VRPSolverEasy/demos/data/CVRP/A-n16-k3.vrp
NAME : A-n16-k2
COMMENT : (Augerat et al, No of trucks: 5, Optimal value: 784)
TYPE : CVRP
DIMENSION : 16
EDGE_WEIGHT_TYPE : EUC_2D 
CAPACITY : 100
NODE_COORD_SECTION 
 1 82 76
 2 96 44
 3 50 5
 4 49 8
 5 13 7
 6 29 89
 7 58 30
 8 84 39
 9 14 24
 10 2 39
 11 3 82
 12 5 10
 13 98 52
 14 84 25
 15 61 59
 16 1 65
DEMAND_SECTION 
1 0 
2 19 
3 21 
4 6 
5 19 
6 7 
7 12 
8 16 
9 6 
10 16 
11 8 
12 14 
13 21 
14 16 
15 3 
16 22 
DEPOT_SECTION 
 1  
 -1  
EOF 
