VRPSolverEasy/demos/data/CVRP/A-n16-k3.sol
V 0 0 5 10 15 9 11 4 8 14 16
V 0 0 1 7 13 2 3 6 16
V 0 0 12 16